10	5
0	4	4	1	2	3
1	2	6	5
2	1	5
3	2	6	5
4	2	6	9
5	1	8
6	1	10
7	1	10
8	1	7
9	1	5
10	1	11
11	0
0	0	0	0	0	0	0
1	8	0	1	3	1	0
2	9	0	0	0	2	0
3	7	0	2	3	0	2
4	2	1	2	1	3	2
5	3	1	3	0	2	3
6	1	1	4	2	4	0
7	6	5	4	4	3	0
8	8	2	4	1	2	4
9	2	0	3	3	3	4
10	1	4	5	1	1	1
11	0	0	0	0	0	0
5	5	5	5	5
